p cnf 59 212
-4 -2 0
-4 -3 0
2 3 4 0
-6 -4 0
-6 5 0
4 -5 6 0
-7 1 0
-7 6 0
-1 -6 7 0
10 -3 0
10 -9 0
3 9 -10 0
8 -10 -11 0
-8 10 -11 0
8 10 11 0
-8 -10 11 0
-12 7 0
-12 11 0
-7 -11 12 0
14 2 0
14 13 0
-2 -13 -14 0
-2 -15 -16 0
2 15 -16 0
-2 15 16 0
2 -15 16 0
17 16 0
17 15 0
-16 -15 -17 0
17 8 -18 0
-17 -8 -18 0
17 -8 18 0
-17 8 18 0
9 4 -19 0
-9 -4 -19 0
9 -4 19 0
-9 4 19 0
-20 -18 0
-20 -19 0
18 19 20 0
21 -20 0
21 2 0
20 -2 -21 0
2 20 -22 0
-2 -20 -22 0
2 -20 22 0
-2 20 22 0
23 21 0
23 22 0
-21 -22 -23 0
25 24 0
25 -16 0
-24 16 -25 0
26 25 0
26 -13 0
-25 13 -26 0
27 -15 0
27 -26 0
15 26 -27 0
-28 -1 0
-28 -27 0
1 27 28 0
23 28 -29 0
-23 -28 -29 0
23 -28 29 0
-23 28 29 0
-30 -10 0
-30 6 0
10 -6 30 0
31 29 0
31 -30 0
-29 30 -31 0
32 -14 0
32 31 0
14 -31 -32 0
-33 3 0
-33 13 0
-3 -13 33 0
-34 3 0
-34 -33 0
-3 33 34 0
5 -34 -35 0
-5 34 -35 0
5 34 35 0
-5 -34 35 0
35 -10 -36 0
-35 10 -36 0
35 10 36 0
-35 -10 36 0
9 19 -37 0
-9 -19 -37 0
9 -19 37 0
-9 19 37 0
38 6 0
38 -13 0
-6 13 -38 0
-39 37 0
-39 -38 0
-37 38 39 0
40 36 0
40 -39 0
-36 39 -40 0
41 8 0
41 -1 0
-8 1 -41 0
-42 1 0
-42 -37 0
-1 37 42 0
-41 -42 -43 0
41 42 -43 0
-41 42 43 0
41 -42 43 0
-40 -43 -44 0
40 43 -44 0
-40 43 44 0
40 -43 44 0
45 32 0
45 44 0
-32 -44 -45 0
-17 -37 -46 0
17 37 -46 0
-17 37 46 0
17 -37 46 0
37 34 -47 0
-37 -34 -47 0
37 -34 47 0
-37 34 47 0
-48 47 0
-48 35 0
-47 -35 48 0
49 46 0
49 48 0
-46 -48 -49 0
-50 -5 0
-50 13 0
5 -13 50 0
51 50 0
51 -16 0
-50 16 -51 0
-52 49 0
-52 -51 0
-49 51 52 0
45 -52 -53 0
-45 52 -53 0
45 52 53 0
-45 -52 53 0
-54 8 -55 0
54 -8 -55 0
-54 -8 55 0
54 8 55 0
56 -8 0
56 15 0
8 -15 -56 0
57 -55 0
57 -56 0
55 56 -57 0
-58 53 0
-58 -57 0
-53 57 58 0
59 -12 0
59 58 0
12 -58 -59 0
44 13 34 -2 -10 0
-38 15 33 0
-38 -40 54 0
-23 41 -50 30 -7 0
16 -45 58 40 0
-37 46 30 44 -29 -51 0
35 -6 -59 -18 -53 0
22 1 -59 0
-11 57 31 -33 -49 -17 0
-2 23 44 54 -6 -47 0
-17 -55 15 52 -48 0
-38 -33 0
12 30 -18 0
10 -11 -22 53 0
-9 54 -14 -34 0
-38 26 -33 -39 30 0
25 43 0
-38 -14 22 13 -5 50 0
-5 28 -31 0
27 37 -17 -45 0
-39 26 -5 42 -15 11 0
-55 23 25 -10 43 0
-11 -53 -37 0
15 -26 -59 9 -35 -50 0
-19 -29 41 0
-1 -58 15 0
54 -20 0
-49 52 22 0
-14 -2 36 0
27 -32 -12 0
-50 -34 11 -4 41 0
7 56 0
-32 -41 0
33 -52 -8 59 57 0
-49 28 -56 0
-31 -36 -45 0
-47 -35 -20 0
30 -15 32 -39 0
28 17 -59 0
47 -37 -11 13 0
-7 -24 0
57 55 19 16 0
-37 7 -53 47 -45 0
2 -16 42 51 0
-2 -1 0
-31 -3 42 0
37 14 52 -48 0
-6 25 -12 0
-8 -31 -15 2 0
59 0
